NAME: GRASP_41_8
TYPE: TSP
COMMENT: line_41_8
DIMENSION: 41
EDGE_WEIGHT_TYPE: EUC_2D
NODE_COORD_SECTION
1 4713 3297
2 2436 3094
3 627 3479
4 1552 3367
5 2668 4262
6 4329 2871
7 3758 4590
8 4604 475
9 761 2274
10 3608 1010
11 1466 601
12 1925 2311
13 2350 4236
14 4204 2409
15 2483 1533
16 2518 8
17 2516 4810
18 1665 3249
19 3398 3143
20 2436 1473
21 1366 463
22 3629 427
23 4868 1935
24 1142 3102
25 4016 3903
26 4135 3612
27 4603 2359
28 3161 1054
29 3373 1301
30 2672 2451
31 2655 2616
32 1976 3925
33 3316 4952
34 3557 1275
35 2717 474
36 1623 72
37 2346 1756
38 2155 433
39 396 3938
40 993 241
41 2796 4696
